
ReductionObjects = 1..10;
ReductionPotential = [0.2 | obj in ReductionObjects]; % [MW]
MaxReductionDuration = [1, 3, 1, 2, 1, 0, 3, 2, 3, 3]; % [h]
% ReductionCost = [100 | obj in ReductionObjects]; % [zł/MW]
ReductionCost = [100, 100, 100, 100, 100, 100, 100, 100, 300, 100]; % [zł/MW]

reduction = 3.4; % [MW]
reductionHours = 2..4;

minReductionByPSE = 1.0; % [%]

reductionPrice = 13000; % [zł/MW]
minProfit = 0.25; % [%]